p = 50;
s = 25;
b = 12;
c = 10;
t = 5;
g = 12;
graph = [| 0,1,1,1,1,1,1,0,0,1,0,0,0,1,1,1,1,1,1,1,1,1,0,1,1
	| 0,0,1,1,1,1,1,1,1,1,1,1,1,1,1,0,0,0,1,1,1,1,1,1,0
	| 1,1,1,1,1,1,0,0,1,0,1,1,1,0,1,0,1,1,1,0,0,0,0,1,0
	| 1,1,1,1,0,1,1,1,0,1,1,1,1,1,1,0,1,0,0,1,1,1,1,0,0
	| 1,0,0,0,1,1,0,1,1,1,0,1,1,1,1,0,1,0,0,0,0,1,0,0,1
	| 1,1,1,0,1,1,1,1,0,0,0,1,1,1,1,1,0,1,1,1,1,1,1,1,1
	| 1,1,1,0,1,1,1,1,0,1,0,1,0,1,1,1,1,1,1,1,1,1,0,1,0
	| 1,0,1,0,1,1,1,0,1,1,0,1,0,1,1,0,1,1,1,1,1,0,1,1,1
	| 0,1,1,1,0,1,1,1,1,1,1,1,1,1,1,1,0,1,1,1,0,1,1,1,1
	| 1,1,0,1,1,1,1,0,0,0,1,1,0,1,1,0,1,1,1,0,0,1,1,0,1
	| 1,0,1,1,1,1,1,1,0,0,1,1,1,1,1,0,1,1,1,1,0,1,1,0,1
	| 1,0,1,0,1,0,0,0,0,0,1,1,0,0,0,1,0,0,1,1,0,0,1,1,1
	| 1,0,1,1,0,1,0,0,0,0,0,1,0,1,0,0,1,0,0,1,1,0,0,0,0
	| 1,0,1,1,0,0,0,1,0,0,1,1,1,1,1,1,1,1,0,1,0,1,0,0,1
	| 1,1,1,0,1,1,1,1,1,1,1,1,1,1,1,0,1,0,1,0,0,0,1,0,0
	| 0,1,1,1,1,0,0,1,1,1,1,1,0,1,0,1,0,1,0,0,1,1,0,1,1
	| 1,1,1,0,1,1,1,1,1,1,1,1,0,0,1,0,0,0,0,0,1,1,1,1,1
	| 0,0,1,1,1,0,0,0,1,1,1,1,0,1,0,0,1,1,1,1,1,1,1,0,0
	| 0,1,1,1,0,1,1,1,0,0,0,0,1,1,0,0,1,1,1,1,1,1,0,1,1
	| 0,1,0,0,1,0,1,1,1,0,1,0,1,1,0,1,0,1,1,1,0,0,1,1,1
	| 0,0,1,1,1,1,1,1,1,1,0,1,0,0,1,1,0,0,1,0,1,1,1,0,1
	| 1,0,0,1,1,1,1,1,1,1,0,0,1,0,0,1,1,0,1,1,0,1,1,1,1
	| 0,1,0,0,1,0,0,1,0,1,0,1,1,0,1,0,1,0,1,1,0,1,0,1,0
	| 1,1,0,0,0,1,0,1,1,1,1,0,1,0,0,1,1,0,1,1,1,1,0,1,1
	| 1,1,1,1,0,1,1,1,1,0,1,1,1,1,0,0,1,1,1,1,1,0,1,1,1
	| 1,1,1,1,0,1,0,1,0,1,1,1,1,1,1,1,0,1,1,0,1,1,0,1,1
	| 1,0,1,0,1,0,1,1,1,1,1,0,1,1,1,1,0,1,1,1,0,1,1,1,1
	| 1,1,0,0,1,1,1,0,1,0,1,1,1,1,0,0,1,1,1,1,1,1,1,1,1
	| 0,0,0,1,1,0,0,1,1,1,0,0,1,1,1,1,1,0,1,1,1,1,1,1,1
	| 1,0,0,1,1,1,1,0,0,1,1,0,1,0,1,0,1,1,1,0,0,0,0,0,1
	| 1,1,0,1,1,0,1,0,0,1,0,1,1,1,1,1,1,1,1,1,1,0,1,1,0
	| 0,1,1,1,1,1,1,1,0,1,0,0,1,0,0,1,1,1,1,1,1,1,1,0,0
	| 0,1,1,0,1,0,1,0,1,1,1,0,1,1,1,1,1,1,0,1,1,0,0,1,0
	| 1,1,0,0,0,1,0,1,1,1,1,1,1,0,1,1,1,1,1,0,1,1,1,1,0
	| 1,1,1,0,1,0,1,1,0,0,1,0,0,1,1,1,1,1,0,1,0,0,0,1,1
	| 1,0,1,1,1,0,1,1,0,1,1,0,0,1,1,0,1,1,0,1,1,1,1,0,0
	| 1,1,1,1,1,1,1,1,0,1,0,1,0,0,1,1,1,0,1,0,1,1,0,1,1
	| 1,1,1,1,1,1,1,1,1,1,0,1,1,0,1,1,1,1,1,1,1,1,1,1,0
	| 1,1,1,1,1,1,1,0,0,1,1,1,1,0,1,1,1,1,0,0,0,0,1,1,1
	| 1,1,1,1,1,1,1,1,0,0,1,1,1,0,1,1,1,1,1,1,1,1,0,1,1
	| 1,1,0,0,1,0,1,1,1,0,1,1,1,1,0,1,1,1,1,0,1,1,1,1,0
	| 0,1,1,1,0,1,1,0,1,1,1,1,1,1,1,1,1,0,1,1,1,0,0,1,0
	| 1,1,1,0,1,1,1,0,0,1,1,1,1,1,1,1,1,1,1,1,0,0,1,1,0
	| 0,1,1,1,1,1,1,0,0,1,1,1,1,0,1,1,1,1,0,1,0,1,1,0,1
	| 1,1,1,0,1,1,1,0,1,1,1,1,0,1,1,1,1,1,1,1,1,0,1,0,1
	| 0,1,1,1,1,1,1,1,1,0,1,1,0,1,1,1,1,0,1,1,1,1,1,0,1
	| 1,1,1,1,0,1,0,1,1,1,1,1,1,0,1,1,1,0,1,0,1,1,1,1,1
	| 1,1,1,1,1,1,1,1,0,1,0,1,1,0,1,0,0,1,0,0,0,1,1,1,0
	| 0,0,1,1,1,1,0,1,1,0,1,1,1,0,1,0,0,1,0,0,0,0,0,1,1
	| 0,1,1,1,0,1,1,1,0,1,0,1,0,0,1,1,1,1,1,0,1,1,1,1,1
	|];
groups = [
	{37,13,28,38,23},{16,35,41,32},{8,21,18,17},{26,31,44,19},{10,12,42,3,34,7,45},{40,22,48,2},{46,43,5,24},{49,39,29,50,15,9},{30,25,47,1,14},{11,6,20,27,4},{36,33},{}
]